p cnf 165 499
c t mc
3 -1 0
3 2 0
1 -2 -3 0
3 -4 -5 0
-3 4 -5 0
3 4 5 0
-3 -4 5 0
-5 -2 -6 0
5 2 -6 0
-5 2 6 0
5 -2 6 0
-9 8 0
-9 1 0
-8 -1 9 0
7 -9 -10 0
-7 9 -10 0
7 9 10 0
-7 -9 10 0
-12 -1 0
-12 11 0
1 -11 12 0
14 12 0
14 13 0
-12 -13 -14 0
-15 14 0
-15 9 0
-14 -9 15 0
-16 10 0
-16 -15 0
-10 15 16 0
-20 18 0
-20 19 0
-18 -19 20 0
-17 20 -21 0
17 -20 -21 0
-17 -20 21 0
17 20 21 0
-23 -1 0
-23 -22 0
1 22 23 0
-25 -23 0
-25 24 0
23 -24 25 0
25 -26 -27 0
-25 26 -27 0
25 26 27 0
-25 -26 27 0
-28 -21 0
-28 27 0
21 -27 28 0
31 -29 0
31 -30 0
29 30 -31 0
-32 28 0
-32 31 0
-28 -31 32 0
-23 -14 -33 0
23 14 -33 0
-23 14 33 0
23 -14 33 0
-34 -32 0
-34 33 0
32 -33 34 0
-35 -16 0
-35 -34 0
16 34 35 0
37 -36 0
37 -20 0
36 20 -37 0
-18 38 -39 0
18 -38 -39 0
-18 -38 39 0
18 38 39 0
-40 -39 0
-40 -19 0
39 19 40 0
-41 -37 0
-41 40 0
37 -40 41 0
-35 41 -42 0
35 -41 -42 0
-35 -41 42 0
35 41 42 0
-6 42 -43 0
6 -42 -43 0
-6 -42 43 0
6 42 43 0
44 -19 -45 0
-44 19 -45 0
44 19 45 0
-44 -19 45 0
46 -29 0
46 45 0
29 -45 -46 0
48 -46 0
48 -47 0
46 47 -48 0
49 -44 -50 0
-49 44 -50 0
49 44 50 0
-49 -44 50 0
51 -50 0
51 38 0
50 -38 -51 0
52 -48 0
52 51 0
48 -51 -52 0
55 53 0
55 54 0
-53 -54 -55 0
56 55 0
56 19 0
-55 -19 -56 0
-8 7 -57 0
8 -7 -57 0
-8 -7 57 0
8 7 57 0
59 -58 0
59 -49 0
58 49 -59 0
60 -57 0
60 -59 0
57 59 -60 0
-61 60 0
-61 -58 0
-60 58 61 0
-56 -61 -62 0
56 61 -62 0
-56 61 62 0
56 -61 62 0
63 52 0
63 62 0
-52 -62 -63 0
64 -47 0
64 10 0
47 -10 -64 0
-65 64 0
-65 -13 0
-64 13 65 0
-67 -65 0
-67 -66 0
65 66 67 0
68 -63 0
68 67 0
63 -67 -68 0
-69 -43 0
-69 -68 0
43 68 69 0
71 -70 0
71 19 0
70 -19 -71 0
60 -5 -72 0
-60 5 -72 0
60 5 72 0
-60 -5 72 0
-73 -71 0
-73 72 0
71 -72 73 0
74 54 0
74 -19 0
-54 19 -74 0
76 -75 0
76 14 0
75 -14 -76 0
-77 74 0
-77 -76 0
-74 76 77 0
39 -19 -78 0
-39 19 -78 0
39 19 78 0
-39 -19 78 0
-79 77 0
-79 78 0
-77 -78 79 0
10 53 -80 0
-10 -53 -80 0
10 -53 80 0
-10 53 80 0
83 -81 0
83 82 0
81 -82 -83 0
80 -83 -84 0
-80 83 -84 0
80 83 84 0
-80 -83 84 0
79 -84 -85 0
-79 84 -85 0
79 84 85 0
-79 -84 85 0
-73 85 -86 0
73 -85 -86 0
-73 -85 86 0
73 85 86 0
87 -69 0
87 86 0
69 -86 -87 0
90 89 0
90 -89 0
91 88 0
91 90 0
-88 -90 -91 0
-92 87 0
-92 -91 0
-87 91 92 0
-93 -18 0
-93 -39 0
18 39 93 0
-94 7 0
-94 -24 0
-7 24 94 0
95 -59 0
95 -94 0
59 94 -95 0
-93 95 -96 0
93 -95 -96 0
-93 -95 96 0
93 95 96 0
-97 -29 0
-97 1 0
29 -1 97 0
97 81 -98 0
-97 -81 -98 0
97 -81 98 0
-97 81 98 0
-99 98 0
-99 -64 0
-98 64 99 0
38 55 -100 0
-38 -55 -100 0
38 -55 100 0
-38 55 100 0
99 -100 -101 0
-99 100 -101 0
99 100 101 0
-99 -100 101 0
103 -44 0
103 102 0
44 -102 -103 0
104 25 0
104 50 0
-25 -50 -104 0
-105 -103 0
-105 -104 0
103 104 105 0
106 57 0
106 102 0
-57 -102 -106 0
107 -106 0
107 29 0
106 -29 -107 0
108 -40 0
108 -30 0
40 30 -108 0
-109 53 0
-109 -94 0
-53 94 109 0
110 -108 0
110 -109 0
108 109 -110 0
107 110 -111 0
-107 -110 -111 0
107 -110 111 0
-107 110 111 0
112 105 0
112 111 0
-105 -111 -112 0
113 64 0
113 -57 0
-64 57 -113 0
-114 23 0
-114 -45 0
-23 45 114 0
115 53 0
115 -4 0
-53 4 -115 0
116 94 0
116 115 0
-94 -115 -116 0
-117 114 0
-117 116 0
-114 -116 117 0
-118 -53 0
-118 -27 0
53 27 118 0
117 -118 -119 0
-117 118 -119 0
117 118 119 0
-117 -118 119 0
120 113 0
120 -119 0
-113 119 -120 0
-121 -19 0
-121 60 0
19 -60 121 0
-122 -65 0
-122 -10 0
65 10 122 0
-123 57 0
-123 7 0
-57 -7 123 0
124 -122 0
124 -123 0
122 123 -124 0
125 121 0
125 -124 0
-121 124 -125 0
-120 125 -126 0
120 -125 -126 0
-120 -125 126 0
120 125 126 0
53 -38 -127 0
-53 38 -127 0
53 38 127 0
-53 -38 127 0
128 26 0
128 127 0
-26 -127 -128 0
-129 46 0
-129 45 0
-46 -45 129 0
-130 102 0
-130 -129 0
-102 129 130 0
131 -128 0
131 130 0
128 -130 -131 0
-106 -30 -132 0
106 30 -132 0
-106 30 132 0
106 -30 132 0
-131 132 -133 0
131 -132 -133 0
-131 -132 133 0
131 132 133 0
-134 15 0
-134 27 0
-15 -27 134 0
135 106 0
135 15 0
-106 -15 -135 0
136 134 0
136 -135 0
-134 135 -136 0
-133 136 -137 0
133 -136 -137 0
-133 -136 137 0
133 136 137 0
65 17 -138 0
-65 -17 -138 0
65 -17 138 0
-65 17 138 0
139 20 0
139 -26 0
-20 26 -139 0
-140 -138 0
-140 -139 0
138 139 140 0
55 1 -141 0
-55 -1 -141 0
55 -1 141 0
-55 1 141 0
140 -141 -142 0
-140 141 -142 0
140 141 142 0
-140 -141 142 0
143 137 0
143 142 0
-137 -142 -143 0
-126 143 -144 0
126 -143 -144 0
-126 -143 144 0
126 143 144 0
145 -112 0
145 144 0
112 -144 -145 0
-101 -145 -146 0
101 145 -146 0
-101 145 146 0
101 -145 146 0
147 96 0
147 146 0
-96 -146 -147 0
-149 17 0
-149 -148 0
-17 148 149 0
-150 -149 0
-150 -47 0
149 47 150 0
-151 -74 0
-151 57 0
74 -57 151 0
152 90 0
152 -11 0
-90 11 -152 0
-153 -151 0
-153 152 0
151 -152 153 0
-154 150 0
-154 -153 0
-150 153 154 0
-147 154 -155 0
147 -154 -155 0
-147 -154 155 0
147 154 155 0
156 -97 0
156 -82 0
97 82 -156 0
-157 -75 0
-157 -114 0
75 114 157 0
116 157 -158 0
-116 -157 -158 0
116 -157 158 0
-116 157 158 0
159 -46 0
159 158 0
46 -158 -159 0
-160 -159 0
-160 -15 0
159 15 160 0
-161 156 0
-161 160 0
-156 -160 161 0
-2 -11 -162 0
2 11 -162 0
-2 11 162 0
2 -11 162 0
-161 162 -163 0
161 -162 -163 0
-161 -162 163 0
161 162 163 0
164 -155 0
164 -163 0
155 163 -164 0
-165 92 0
-165 164 0
-92 -164 165 0
-57 -19 -17 5 90 127 157 0
-143 52 127 -93 -8 -111 0
114 -14 37 -102 0
156 -107 -11 9 133 -148 68 101 -69 -34 0
-160 59 74 -99 -29 35 103 80 158 -72 0
-96 156 115 -136 -94 -160 162 -55 161 -143 0
-99 -139 -57 52 -136 -41 0
43 -73 122 -134 3 0
42 -100 12 0
63 165 85 -23 -111 -55 0
-70 -163 -119 -125 -31 -53 81 47 36 21 0
148 17 -104 -140 47 -157 -135 0
-156 63 16 -126 -33 27 -35 163 -94 -64 0
54 131 -88 -143 79 -56 -47 159 66 70 0
-98 -97 104 0
-5 64 118 0
155 -25 -123 64 5 -131 71 59 51 0
-77 7 46 -48 117 -12 0
66 -78 115 0
-129 69 100 -54 163 0
-112 72 -161 -49 -71 0
-146 15 -99 -144 137 0
-55 -93 -143 0
144 -28 -2 91 -61 121 -19 0
90 116 -144 141 0
-144 56 -5 -151 111 -124 0
68 147 -110 77 -38 -7 0
-151 32 17 130 146 0
-155 35 -114 0
-161 99 -85 142 73 12 87 -58 14 0
62 161 131 0
47 42 -81 32 136 -114 150 0
-28 45 100 105 -106 -79 0
84 -106 -41 0
153 -13 -56 60 104 0
-78 -128 74 -108 0
137 41 -11 -78 0
-79 -108 -150 -50 28 160 -33 159 58 0
-60 123 -110 -101 -147 117 0
88 -99 -151 87 -136 -160 -3 0
-58 25 -16 0
165 -89 155 -120 -11 127 48 -149 45 0
142 -136 -151 -34 -35 -132 0
-95 -19 -56 90 29 -94 -108 -84 40 -101 0
78 -139 37 0
94 -105 75 136 -76 153 -4 156 -141 -30 0
-165 18 -13 -108 65 0
-143 -12 7 92 30 38 -29 0
97 -151 -61 122 16 -4 156 0
87 128 -17 45 -51 0
-50 -61 -111 160 118 -101 43 17 -129 -142 0
128 30 81 -104 -48 29 -114 49 0
-101 -81 165 69 -137 107 129 0
64 77 131 -159 0
-143 142 -133 -44 -124 -36 -134 -16 -153 0
-74 109 -88 140 -161 125 -37 -137 159 -40 0
-113 158 -116 -70 8 44 29 -38 100 0
117 76 -130 -25 0
35 -65 -59 -83 123 73 -89 -97 51 0
108 156 -102 0
86 5 -47 -54 46 -44 83 -67 0
165 0
